\ENCODING=ISO-8859-1
\Problem name: ilog.cplex

Minimize
 obj1: 107315 x1 + 100456 x2 + 91256 x3 + 104549 x4 + 99261 x5 + 97328 x6
       + 98147 x7 + 97282 x8 + 98134 x9 + 103167 x10 + 91934 x11 + 105472 x12
       + 97382 x13 + 100257 x14 + 105172 x15 + 105785 x16 + 101928 x17
       + 107898 x18 + 91421 x19 + 95015 x20 + 94776 x21 + 103873 x22
       + 95834 x23 + 91846 x24 + 97813 x25 + 107362 x26 + 109338 x27
       + 96327 x28 + 94840 x29 + 96844 x30 + 99247 x31 + 107035 x32
       + 108340 x33 + 109509 x34 + 102866 x35 + 91668 x36 + 90562 x37
       + 92313 x38 + 100099 x39 + 103245 x40 + 104208 x41 + 109063 x42
       + 106036 x43 + 91147 x44 + 108346 x45 + 92751 x46 + 105186 x47
       + 93901 x48 + 91128 x49 + 107894 x50 + 105253 x51 + 98912 x52
       + 102468 x53 + 93684 x54 + 100282 x55 + 93278 x56 + 97049 x57
       + 95561 x58 + 100497 x59 + 109367 x60 + 109015 x61 + 102929 x62
       + 106345 x63 + 106677 x64 + 91003 x65 + 107939 x66 + 94556 x67
       + 92677 x68 + 107902 x69 + 105271 x70 + 94109 x71 + 94559 x72
       + 100413 x73 + 95136 x74 + 100236 x75 + 106980 x76 + 100021 x77
       + 103620 x78 + 91313 x79 + 95748 x80 + 94070 x81 + 94908 x82
       + 108750 x83 + 92626 x84 + 91306 x85 + 91226 x86 + 103500 x87
       + 101168 x88 + 90454 x89 + 98864 x90 + 105532 x91 + 101721 x92
       + 99624 x93 + 92073 x94 + 95600 x95 + 107488 x96 + 100090 x97
       + 105746 x98 + 92264 x99 + 102947 x100 + 94432 x101 + 92481 x102
       + 91358 x103 + 90951 x104 + 106099 x105 + 109951 x106 + 109932 x107
       + 105448 x108 + 105096 x109 + 100483 x110 + 92240 x111 + 93067 x112
       + 102815 x113 + 106311 x114 + 91398 x115 + 108683 x116 + 107960 x117
       + 91181 x118 + 107121 x119 + 107606 x120 + 90183 x121 + 107226 x122
       + 101280 x123 + 109096 x124 + 103362 x125 + 105654 x126 + 90058 x127
       + 94079 x128 + 108179 x129 + 109736 x130 + 101006 x131 + 100739 x132
       + 102129 x133 + 103746 x134 + 108865 x135 + 98090 x136 + 101042 x137
       + 98731 x138 + 96616 x139 + 94146 x140 + 96346 x141 + 91512 x142
       + 107235 x143 + 94397 x144 + 90496 x145 + 96660 x146 + 101692 x147
       + 97067 x148 + 95867 x149 + 91843 x150 + 91854 x151 + 104306 x152
       + 100557 x153 + 92122 x154 + 100432 x155 + 101486 x156 + 98304 x157
       + 104569 x158 + 109161 x159 + 100340 x160 + 109142 x161 + 91022 x162
       + 91138 x163 + 95959 x164 + 102398 x165 + 103811 x166 + 103569 x167
       + 92511 x168 + 94321 x169 + 97011 x170 + 103102 x171 + 108029 x172
       + 108876 x173 + 94030 x174 + 97568 x175 + 94728 x176 + 102137 x177
       + 91296 x178 + 105092 x179 + 108076 x180 + 105156 x181 + 107974 x182
       + 106889 x183 + 108653 x184 + 90902 x185 + 99933 x186 + 109812 x187
       + 109041 x188 + 99360 x189 + 108407 x190 + 97385 x191 + 94406 x192
       + 96388 x193 + 92379 x194 + 108876 x195 + 98102 x196 + 100065 x197
       + 105502 x198 + 105338 x199 + 94568 x200 + 95561 x201 + 98274 x202
       + 100194 x203 + 104516 x204 + 92352 x205 + 90503 x206 + 100315 x207
       + 109882 x208 + 93380 x209 + 104656 x210 + 95777 x211 + 97536 x212
       + 98129 x213 + 98875 x214 + 101711 x215 + 104166 x216 + 104592 x217
       + 102160 x218 + 101420 x219 + 93871 x220 + 108691 x221 + 93648 x222
       + 106391 x223 + 104687 x224 + 103964 x225 + 102935 x226 + 95857 x227
       + 90598 x228 + 99210 x229 + 99010 x230 + 106258 x231 + 101554 x232
       + 97231 x233 + 101664 x234 + 109246 x235 + 105589 x236 + 93979 x237
       + 91118 x238 + 105797 x239 + 104346 x240 + 106140 x241 + 96236 x242
       + 98060 x243 + 94706 x244 + 99164 x245 + 109573 x246 + 92863 x247
       + 102451 x248 + 91499 x249 + 101393 x250 + 105942 x251 + 95657 x252
       + 94322 x253 + 105079 x254 + 104097 x255 + 103205 x256 + 100016 x257
       + 97513 x258 + 93033 x259 + 92297 x260 + 107869 x261 + 105493 x262
       + 95848 x263 + 108296 x264 + 96596 x265 + 101839 x266 + 98937 x267
       + 107542 x268 + 95161 x269 + 93611 x270 + 101215 x271 + 99191 x272
       + 101181 x273 + 107230 x274 + 100739 x275 + 107266 x276 + 99668 x277
       + 108269 x278 + 106565 x279 + 99936 x280 + 103939 x281 + 97309 x282
       + 93070 x283 + 109436 x284 + 95229 x285 + 97479 x286 + 98989 x287
       + 103119 x288 + 97885 x289 + 94170 x290 + 94066 x291 + 103792 x292
       + 92960 x293 + 102905 x294 + 92486 x295 + 95786 x296 + 104626 x297
       + 107451 x298 + 104145 x299 + 92149 x300 + 97890 x301 + 93935 x302
       + 98627 x303 + 109582 x304 + 104382 x305 + 90391 x306 + 99159 x307
       + 102106 x308 + 90840 x309 + 102853 x310 + 99328 x311 + 107819 x312
       + 90193 x313 + 105016 x314 + 102156 x315 + 102753 x316 + 98751 x317
       + 105039 x318 + 107523 x319 + 96467 x320 + 91723 x321 + 99274 x322
       + 105277 x323 + 98268 x324 + 109943 x325 + 106041 x326 + 90393 x327
       + 92954 x328 + 107099 x329 + 91211 x330 + 95405 x331 + 107314 x332
       + 91296 x333 + 105227 x334 + 107726 x335 + 96773 x336 + 99979 x337
       + 104602 x338 + 102422 x339 + 105320 x340 + 93017 x341 + 90048 x342
       + 94657 x343 + 91281 x344 + 95195 x345 + 98093 x346 + 100242 x347
       + 106479 x348 + 106413 x349 + 93354 x350 + 107581 x351 + 107008 x352
       + 105545 x353 + 104620 x354 + 109816 x355 + 100094 x356 + 102237 x357
       + 109461 x358 + 102070 x359 + 93410 x360 + 90746 x361 + 102192 x362
       + 109672 x363 + 96628 x364 + 91056 x365 + 107249 x366 + 98990 x367
       + 90578 x368 + 96715 x369 + 101166 x370 + 102957 x371 + 101093 x372
       + 101155 x373 + 98087 x374 + 101788 x375 + 94906 x376 + 106123 x377
       + 102783 x378 + 92491 x379 + 93540 x380 + 94420 x381 + 106018 x382
       + 99531 x383 + 108269 x384 + 95244 x385 + 95837 x386 + 103754 x387
       + 94486 x388 + 106191 x389 + 101854 x390 + 101656 x391 + 93510 x392
       + 98434 x393 + 104204 x394 + 104909 x395 + 92252 x396 + 109791 x397
       + 93981 x398 + 93528 x399 + 104136 x400 + 104141 x401 + 107791 x402
       + 105131 x403 + 98289 x404 + 105046 x405 + 95478 x406 + 97456 x407
       + 98247 x408 + 96442 x409 + 97112 x410 + 101628 x411 + 96301 x412
       + 103950 x413 + 103042 x414 + 109632 x415 + 105067 x416 + 106560 x417
       + 109070 x418 + 91027 x419 + 94011 x420 + 95383 x421 + 103817 x422
       + 96513 x423 + 105842 x424 + 91363 x425 + 95999 x426 + 102893 x427
       + 96331 x428 + 92237 x429 + 100473 x430 + 109156 x431 + 101726 x432
       + 104024 x433 + 98768 x434 + 98518 x435 + 106598 x436 + 103188 x437
       + 109914 x438 + 108435 x439 + 106205 x440 + 105994 x441 + 96912 x442
       + 98489 x443 + 102999 x444 + 100472 x445 + 102619 x446 + 103875 x447
       + 104608 x448 + 100152 x449 + 94399 x450 + 99417 x451 + 95690 x452
       + 100398 x453 + 109393 x454 + 103555 x455 + 103879 x456 + 90581 x457
       + 100420 x458 + 96968 x459 + 93526 x460 + 98300 x461 + 106283 x462
       + 96242 x463 + 99991 x464 + 95475 x465 + 109644 x466 + 109486 x467
       + 101969 x468 + 100372 x469 + 100662 x470 + 107773 x471 + 99657 x472
       + 104488 x473 + 95230 x474 + 94032 x475 + 102524 x476 + 98720 x477
       + 102906 x478 + 99266 x479 + 92039 x480 + 91901 x481 + 100956 x482
       + 93146 x483 + 99738 x484 + 91167 x485 + 101409 x486 + 108556 x487
       + 109778 x488 + 104112 x489 + 90663 x490 + 97517 x491 + 90705 x492
       + 94758 x493 + 95485 x494 + 104807 x495 + 103367 x496 + 103694 x497
       + 100054 x498 + 93387 x499 + 105341 x500 + 90153 x501 + 102923 x502
       + 90998 x503 + 103981 x504 + 103278 x505 + 101164 x506 + 107996 x507
       + 109780 x508 + 103063 x509 + 103613 x510 + 101062 x511 + 102756 x512
       + 103696 x513 + 106893 x514 + 99971 x515 + 99140 x516 + 109834 x517
       + 90250 x518 + 92728 x519 + 100827 x520 + 99823 x521 + 98231 x522
       + 98168 x523 + 105833 x524 + 98929 x525 + 103832 x526 + 104500 x527
       + 94440 x528 + 100380 x529 + 98999 x530 + 97287 x531 + 102758 x532
       + 92339 x533 + 104218 x534 + 101025 x535 + 93110 x536 + 94876 x537
       + 104422 x538 + 94723 x539 + 108944 x540 + 100898 x541 + 105902 x542
       + 94875 x543 + 98103 x544 + 90220 x545 + 106225 x546 + 103423 x547
       + 109122 x548 + 95872 x549 + 109993 x550 + 91121 x551 + 97958 x552
       + 92501 x553 + 98964 x554 + 93499 x555 + 100376 x556 + 107851 x557
       + 95233 x558 + 92375 x559 + 104986 x560 + 90252 x561 + 104069 x562
       + 90599 x563 + 106389 x564 + 99496 x565 + 108834 x566 + 103519 x567
       + 96361 x568 + 97723 x569 + 108799 x570 + 91901 x571 + 103027 x572
       + 100830 x573 + 92877 x574 + 102794 x575 + 100537 x576 + 95526 x577
       + 90141 x578 + 97188 x579 + 99844 x580 + 92262 x581 + 91416 x582
       + 106302 x583 + 95007 x584 + 90131 x585 + 95369 x586 + 91944 x587
       + 98802 x588 + 96205 x589 + 97164 x590 + 90646 x591 + 96460 x592
       + 108865 x593 + 108150 x594 + 96114 x595 + 96987 x596 + 102344 x597
       + 90943 x598 + 100032 x599 + 75944 x600 + 43450 x601 + 36445 x602
       + 42539 x603 + 40706 x604 + 37983 x605 + 37737 x606 + 39643 x607
       + 43831 x608 + 41692 x609 + 37003 x610 + 41437 x611 + 38426 x612
       + 42780 x613 + 42945 x614 + 42221 x615 + 37531 x616 + 43271 x617
       + 41832 x618 + 38232 x619 + 42958 x620 + 41903 x621 + 42447 x622
       + 39389 x623 + 41560 x624 + 41987 x625 + 39668 x626 + 37295 x627
       + 40733 x628 + 37167 x629 + 37546 x630 + 38966 x631 + 36466 x632
       + 41222 x633 + 40377 x634 + 38288 x635 + 37299 x636 + 42011 x637
       + 38649 x638 + 40564 x639 + 36282 x640 + 42336 x641 + 37878 x642
       + 43556 x643 + 42554 x644 + 37955 x645 + 38220 x646 + 43245 x647
       + 42398 x648 + 43167 x649 + 43403 x650 + 42137 x651 + 40661 x652
       + 43343 x653 + 42873 x654 + 36215 x655 + 41158 x656 + 39464 x657
       + 39204 x658 + 43738 x659 + 14014 x660
Subject To
 c1:   - x11 + x36 - x46 - x49  = 0
 c2:   - x71 + x96 - x106 - x109  = 0
 c3:   - x131 + x156 - x166 - x169  = 0
 c4:   - x191 + x216 - x226 - x229  = 0
 c5:   - x251 + x276 - x286 - x289  = 0
 c6:   - x311 + x336 - x346 - x349  = 0
 c7:   - x371 + x396 - x406 - x409  = 0
 c8:   - x431 + x456 - x466 - x469  = -1
 c9:   - x491 + x516 - x526 - x529  = 0
 c10:  - x551 + x576 - x586 - x589  = 0
 c11:  x8 + x24 + x25 - x29 + x39 + x43 - x48 + x51 + x58  = 0
 c12:  x68 + x84 + x85 - x89 + x99 + x103 - x108 + x111 + x118  = 0
 c13:  x128 + x144 + x145 - x149 + x159 + x163 - x168 + x171 + x178  = 1
 c14:  x188 + x204 + x205 - x209 + x219 + x223 - x228 + x231 + x238  = 0
 c15:  x248 + x264 + x265 - x269 + x279 + x283 - x288 + x291 + x298  = 0
 c16:  x308 + x324 + x325 - x329 + x339 + x343 - x348 + x351 + x358  = 0
 c17:  x368 + x384 + x385 - x389 + x399 + x403 - x408 + x411 + x418  = 0
 c18:  x428 + x444 + x445 - x449 + x459 + x463 - x468 + x471 + x478  = 0
 c19:  x488 + x504 + x505 - x509 + x519 + x523 - x528 + x531 + x538  = 0
 c20:  x548 + x564 + x565 - x569 + x579 + x583 - x588 + x591 + x598  = 0
 c21:  - x3 + x15 - x17 + x22 - x36 - x38 - x39 - x52 - x53 + x56  = 0
 c22:  - x63 + x75 - x77 + x82 - x96 - x98 - x99 - x112 - x113 + x116  = 0
 c23:  - x123 + x135 - x137 + x142 - x156 - x158 - x159 - x172 - x173 + x176
        = 0
 c24:  - x183 + x195 - x197 + x202 - x216 - x218 - x219 - x232 - x233 + x236
        = 0
 c25:  - x243 + x255 - x257 + x262 - x276 - x278 - x279 - x292 - x293 + x296
        = -1
 c26:  - x303 + x315 - x317 + x322 - x336 - x338 - x339 - x352 - x353 + x356
        = 0
 c27:  - x363 + x375 - x377 + x382 - x396 - x398 - x399 - x412 - x413 + x416
        = 0
 c28:  - x423 + x435 - x437 + x442 - x456 - x458 - x459 - x472 - x473 + x476
        = 0
 c29:  - x483 + x495 - x497 + x502 - x516 - x518 - x519 - x532 - x533 + x536
        = 0
 c30:  - x543 + x555 - x557 + x562 - x576 - x578 - x579 - x592 - x593 + x596
        = -1
 c31:  - x6 + x7 - x8 + x12 - x16 + x17 + x34 + x37 - x47  = 0
 c32:  - x66 + x67 - x68 + x72 - x76 + x77 + x94 + x97 - x107  = 0
 c33:  - x126 + x127 - x128 + x132 - x136 + x137 + x154 + x157 - x167  = 0
 c34:  - x186 + x187 - x188 + x192 - x196 + x197 + x214 + x217 - x227  = -1
 c35:  - x246 + x247 - x248 + x252 - x256 + x257 + x274 + x277 - x287  = 0
 c36:  - x306 + x307 - x308 + x312 - x316 + x317 + x334 + x337 - x347  = 0
 c37:  - x366 + x367 - x368 + x372 - x376 + x377 + x394 + x397 - x407  = 0
 c38:  - x426 + x427 - x428 + x432 - x436 + x437 + x454 + x457 - x467  = 0
 c39:  - x486 + x487 - x488 + x492 - x496 + x497 + x514 + x517 - x527  = 0
 c40:  - x546 + x547 - x548 + x552 - x556 + x557 + x574 + x577 - x587  = 0
 c41:  - x1 - x21 - x25 - x28 - x33 + x44 + x52 - x59 + x60  = 0
 c42:  - x61 - x81 - x85 - x88 - x93 + x104 + x112 - x119 + x120  = 0
 c43:  - x121 - x141 - x145 - x148 - x153 + x164 + x172 - x179 + x180  = 0
 c44:  - x181 - x201 - x205 - x208 - x213 + x224 + x232 - x239 + x240  = 0
 c45:  - x241 - x261 - x265 - x268 - x273 + x284 + x292 - x299 + x300  = 0
 c46:  - x301 - x321 - x325 - x328 - x333 + x344 + x352 - x359 + x360  = 0
 c47:  - x361 - x381 - x385 - x388 - x393 + x404 + x412 - x419 + x420  = -1
 c48:  - x421 - x441 - x445 - x448 - x453 + x464 + x472 - x479 + x480  = 0
 c49:  - x481 - x501 - x505 - x508 - x513 + x524 + x532 - x539 + x540  = 0
 c50:  - x541 - x561 - x565 - x568 - x573 + x584 + x592 - x599 + x600  = 0
 c51:  x10 - x12 + x18 - x19 - x22 - x55  = 0
 c52:  x70 - x72 + x78 - x79 - x82 - x115  = 0
 c53:  x130 - x132 + x138 - x139 - x142 - x175  = -1
 c54:  x190 - x192 + x198 - x199 - x202 - x235  = 1
 c55:  x250 - x252 + x258 - x259 - x262 - x295  = 0
 c56:  x310 - x312 + x318 - x319 - x322 - x355  = 0
 c57:  x370 - x372 + x378 - x379 - x382 - x415  = 0
 c58:  x430 - x432 + x438 - x439 - x442 - x475  = 1
 c59:  x490 - x492 + x498 - x499 - x502 - x535  = 0
 c60:  x550 - x552 + x558 - x559 - x562 - x595  = 0
 c61:  - x5 - x15 + x21 + x30 + x31 - x35 + x45 + x47 + x48  = 1
 c62:  - x65 - x75 + x81 + x90 + x91 - x95 + x105 + x107 + x108  = 0
 c63:  - x125 - x135 + x141 + x150 + x151 - x155 + x165 + x167 + x168  = 0
 c64:  - x185 - x195 + x201 + x210 + x211 - x215 + x225 + x227 + x228  = 0
 c65:  - x245 - x255 + x261 + x270 + x271 - x275 + x285 + x287 + x288  = 0
 c66:  - x305 - x315 + x321 + x330 + x331 - x335 + x345 + x347 + x348  = 0
 c67:  - x365 - x375 + x381 + x390 + x391 - x395 + x405 + x407 + x408  = 1
 c68:  - x425 - x435 + x441 + x450 + x451 - x455 + x465 + x467 + x468  = 0
 c69:  - x485 - x495 + x501 + x510 + x511 - x515 + x525 + x527 + x528  = 0
 c70:  - x545 - x555 + x561 + x570 + x571 - x575 + x585 + x587 + x588  = 0
 c71:  x4 - x7 + x9 + x14 + x16 - x27 + x38 - x40 - x42 - x43 + x59  = 0
 c72:  x64 - x67 + x69 + x74 + x76 - x87 + x98 - x100 - x102 - x103 + x119  = 1
 c73:  x124 - x127 + x129 + x134 + x136 - x147 + x158 - x160 - x162 - x163
       + x179  = 0
 c74:  x184 - x187 + x189 + x194 + x196 - x207 + x218 - x220 - x222 - x223
       + x239  = 0
 c75:  x244 - x247 + x249 + x254 + x256 - x267 + x278 - x280 - x282 - x283
       + x299  = 0
 c76:  x304 - x307 + x309 + x314 + x316 - x327 + x338 - x340 - x342 - x343
       + x359  = 0
 c77:  x364 - x367 + x369 + x374 + x376 - x387 + x398 - x400 - x402 - x403
       + x419  = 0
 c78:  x424 - x427 + x429 + x434 + x436 - x447 + x458 - x460 - x462 - x463
       + x479  = 0
 c79:  x484 - x487 + x489 + x494 + x496 - x507 + x518 - x520 - x522 - x523
       + x539  = 0
 c80:  x544 - x547 + x549 + x554 + x556 - x567 + x578 - x580 - x582 - x583
       + x599  = 0
 c81:  x1 - x2 + x26 - x30 - x37 - x56 - x60  = -1
 c82:  x61 - x62 + x86 - x90 - x97 - x116 - x120  = 0
 c83:  x121 - x122 + x146 - x150 - x157 - x176 - x180  = 0
 c84:  x181 - x182 + x206 - x210 - x217 - x236 - x240  = 0
 c85:  x241 - x242 + x266 - x270 - x277 - x296 - x300  = 0
 c86:  x301 - x302 + x326 - x330 - x337 - x356 - x360  = 0
 c87:  x361 - x362 + x386 - x390 - x397 - x416 - x420  = 0
 c88:  x421 - x422 + x446 - x450 - x457 - x476 - x480  = 0
 c89:  x481 - x482 + x506 - x510 - x517 - x536 - x540  = 1
 c90:  x541 - x542 + x566 - x570 - x577 - x596 - x600  = 0
 c91:  x28 - x41 + x42 - x45 + x49 - x58  = 0
 c92:  x88 - x101 + x102 - x105 + x109 - x118  = 0
 c93:  x148 - x161 + x162 - x165 + x169 - x178  = 0
 c94:  x208 - x221 + x222 - x225 + x229 - x238  = 0
 c95:  x268 - x281 + x282 - x285 + x289 - x298  = 0
 c96:  x328 - x341 + x342 - x345 + x349 - x358  = -1
 c97:  x388 - x401 + x402 - x405 + x409 - x418  = 0
 c98:  x448 - x461 + x462 - x465 + x469 - x478  = 0
 c99:  x508 - x521 + x522 - x525 + x529 - x538  = 0
 c100: x568 - x581 + x582 - x585 + x589 - x598  = 0
 c101: x23 - x31 + x35 + x40 - x50 + x53 - x57  = 0
 c102: x83 - x91 + x95 + x100 - x110 + x113 - x117  = 0
 c103: x143 - x151 + x155 + x160 - x170 + x173 - x177  = 0
 c104: x203 - x211 + x215 + x220 - x230 + x233 - x237  = 0
 c105: x263 - x271 + x275 + x280 - x290 + x293 - x297  = 0
 c106: x323 - x331 + x335 + x340 - x350 + x353 - x357  = 0
 c107: x383 - x391 + x395 + x400 - x410 + x413 - x417  = 0
 c108: x443 - x451 + x455 + x460 - x470 + x473 - x477  = 0
 c109: x503 - x511 + x515 + x520 - x530 + x533 - x537  = 0
 c110: x563 - x571 + x575 + x580 - x590 + x593 - x597  = 1
 c111: x5 - x9 + x11 + x19 - x26 - x32 - x44 + x54 + x57  = 0
 c112: x65 - x69 + x71 + x79 - x86 - x92 - x104 + x114 + x117  = 0
 c113: x125 - x129 + x131 + x139 - x146 - x152 - x164 + x174 + x177  = 0
 c114: x185 - x189 + x191 + x199 - x206 - x212 - x224 + x234 + x237  = 0
 c115: x245 - x249 + x251 + x259 - x266 - x272 - x284 + x294 + x297  = 0
 c116: x305 - x309 + x311 + x319 - x326 - x332 - x344 + x354 + x357  = 0
 c117: x365 - x369 + x371 + x379 - x386 - x392 - x404 + x414 + x417  = 0
 c118: x425 - x429 + x431 + x439 - x446 - x452 - x464 + x474 + x477  = 0
 c119: x485 - x489 + x491 + x499 - x506 - x512 - x524 + x534 + x537  = -1
 c120: x545 - x549 + x551 + x559 - x566 - x572 - x584 + x594 + x597  = 0
 c121: x3 + x6 + x13 - x14 - x20 - x23 + x29 + x46  = 0
 c122: x63 + x66 + x73 - x74 - x80 - x83 + x89 + x106  = 0
 c123: x123 + x126 + x133 - x134 - x140 - x143 + x149 + x166  = 0
 c124: x183 + x186 + x193 - x194 - x200 - x203 + x209 + x226  = 0
 c125: x243 + x246 + x253 - x254 - x260 - x263 + x269 + x286  = 0
 c126: x303 + x306 + x313 - x314 - x320 - x323 + x329 + x346  = 1
 c127: x363 + x366 + x373 - x374 - x380 - x383 + x389 + x406  = 0
 c128: x423 + x426 + x433 - x434 - x440 - x443 + x449 + x466  = 0
 c129: x483 + x486 + x493 - x494 - x500 - x503 + x509 + x526  = 0
 c130: x543 + x546 + x553 - x554 - x560 - x563 + x569 + x586  = 0
 c131: x2 - x4 - x10 - x13 + x27 + x32 - x34 + x41 + x50 - x51 + x55  = 0
 c132: x62 - x64 - x70 - x73 + x87 + x92 - x94 + x101 + x110 - x111 + x115  = 0
 c133: x122 - x124 - x130 - x133 + x147 + x152 - x154 + x161 + x170 - x171
       + x175  = 0
 c134: x182 - x184 - x190 - x193 + x207 + x212 - x214 + x221 + x230 - x231
       + x235  = 0
 c135: x242 - x244 - x250 - x253 + x267 + x272 - x274 + x281 + x290 - x291
       + x295  = 0
 c136: x302 - x304 - x310 - x313 + x327 + x332 - x334 + x341 + x350 - x351
       + x355  = 0
 c137: x362 - x364 - x370 - x373 + x387 + x392 - x394 + x401 + x410 - x411
       + x415  = 0
 c138: x422 - x424 - x430 - x433 + x447 + x452 - x454 + x461 + x470 - x471
       + x475  = 0
 c139: x482 - x484 - x490 - x493 + x507 + x512 - x514 + x521 + x530 - x531
       + x535  = 0
 c140: x542 - x544 - x550 - x553 + x567 + x572 - x574 + x581 + x590 - x591
       + x595  = 0
 c141: - x18 + x20 - x24 + x33 - x54  = 0
 c142: - x78 + x80 - x84 + x93 - x114  = -1
 c143: - x138 + x140 - x144 + x153 - x174  = 0
 c144: - x198 + x200 - x204 + x213 - x234  = 0
 c145: - x258 + x260 - x264 + x273 - x294  = 1
 c146: - x318 + x320 - x324 + x333 - x354  = 0
 c147: - x378 + x380 - x384 + x393 - x414  = 0
 c148: - x438 + x440 - x444 + x453 - x474  = 0
 c149: - x498 + x500 - x504 + x513 - x534  = 0
 c150: - x558 + x560 - x564 + x573 - x594  = 0
 c151: 4 x1 + 4 x61 + 4 x121 + 4 x181 + 4 x241 + 4 x301 + 4 x361 + 4 x421
       + 4 x481 + 4 x541 - 5 x601 <= 0
 c152: 4 x2 + 4 x62 + 4 x122 + 4 x182 + 4 x242 + 4 x302 + 4 x362 + 4 x422
       + 4 x482 + 4 x542 - 5 x602 <= 0
 c153: 4 x3 + 4 x63 + 4 x123 + 4 x183 + 4 x243 + 4 x303 + 4 x363 + 4 x423
       + 4 x483 + 4 x543 - 5 x603 <= 0
 c154: 4 x4 + 4 x64 + 4 x124 + 4 x184 + 4 x244 + 4 x304 + 4 x364 + 4 x424
       + 4 x484 + 4 x544 - 5 x604 <= 0
 c155: 4 x5 + 4 x65 + 4 x125 + 4 x185 + 4 x245 + 4 x305 + 4 x365 + 4 x425
       + 4 x485 + 4 x545 - 5 x605 <= 0
 c156: 4 x6 + 4 x66 + 4 x126 + 4 x186 + 4 x246 + 4 x306 + 4 x366 + 4 x426
       + 4 x486 + 4 x546 - 5 x606 <= 0
 c157: 4 x7 + 4 x67 + 4 x127 + 4 x187 + 4 x247 + 4 x307 + 4 x367 + 4 x427
       + 4 x487 + 4 x547 - 5 x607 <= 0
 c158: 4 x8 + 4 x68 + 4 x128 + 4 x188 + 4 x248 + 4 x308 + 4 x368 + 4 x428
       + 4 x488 + 4 x548 - 5 x608 <= 0
 c159: 4 x9 + 4 x69 + 4 x129 + 4 x189 + 4 x249 + 4 x309 + 4 x369 + 4 x429
       + 4 x489 + 4 x549 - 5 x609 <= 0
 c160: 4 x10 + 4 x70 + 4 x130 + 4 x190 + 4 x250 + 4 x310 + 4 x370 + 4 x430
       + 4 x490 + 4 x550 - 5 x610 <= 0
 c161: 4 x11 + 4 x71 + 4 x131 + 4 x191 + 4 x251 + 4 x311 + 4 x371 + 4 x431
       + 4 x491 + 4 x551 - 5 x611 <= 0
 c162: 4 x12 + 4 x72 + 4 x132 + 4 x192 + 4 x252 + 4 x312 + 4 x372 + 4 x432
       + 4 x492 + 4 x552 - 5 x612 <= 0
 c163: 4 x13 + 4 x73 + 4 x133 + 4 x193 + 4 x253 + 4 x313 + 4 x373 + 4 x433
       + 4 x493 + 4 x553 - 5 x613 <= 0
 c164: 4 x14 + 4 x74 + 4 x134 + 4 x194 + 4 x254 + 4 x314 + 4 x374 + 4 x434
       + 4 x494 + 4 x554 - 5 x614 <= 0
 c165: 4 x15 + 4 x75 + 4 x135 + 4 x195 + 4 x255 + 4 x315 + 4 x375 + 4 x435
       + 4 x495 + 4 x555 - 5 x615 <= 0
 c166: 4 x16 + 4 x76 + 4 x136 + 4 x196 + 4 x256 + 4 x316 + 4 x376 + 4 x436
       + 4 x496 + 4 x556 - 5 x616 <= 0
 c167: 4 x17 + 4 x77 + 4 x137 + 4 x197 + 4 x257 + 4 x317 + 4 x377 + 4 x437
       + 4 x497 + 4 x557 - 5 x617 <= 0
 c168: 4 x18 + 4 x78 + 4 x138 + 4 x198 + 4 x258 + 4 x318 + 4 x378 + 4 x438
       + 4 x498 + 4 x558 - 5 x618 <= 0
 c169: 4 x19 + 4 x79 + 4 x139 + 4 x199 + 4 x259 + 4 x319 + 4 x379 + 4 x439
       + 4 x499 + 4 x559 - 5 x619 <= 0
 c170: 4 x20 + 4 x80 + 4 x140 + 4 x200 + 4 x260 + 4 x320 + 4 x380 + 4 x440
       + 4 x500 + 4 x560 - 5 x620 <= 0
 c171: 4 x21 + 4 x81 + 4 x141 + 4 x201 + 4 x261 + 4 x321 + 4 x381 + 4 x441
       + 4 x501 + 4 x561 - 5 x621 <= 0
 c172: 4 x22 + 4 x82 + 4 x142 + 4 x202 + 4 x262 + 4 x322 + 4 x382 + 4 x442
       + 4 x502 + 4 x562 - 5 x622 <= 0
 c173: 4 x23 + 4 x83 + 4 x143 + 4 x203 + 4 x263 + 4 x323 + 4 x383 + 4 x443
       + 4 x503 + 4 x563 - 5 x623 <= 0
 c174: 4 x24 + 4 x84 + 4 x144 + 4 x204 + 4 x264 + 4 x324 + 4 x384 + 4 x444
       + 4 x504 + 4 x564 - 5 x624 <= 0
 c175: 4 x25 + 4 x85 + 4 x145 + 4 x205 + 4 x265 + 4 x325 + 4 x385 + 4 x445
       + 4 x505 + 4 x565 - 5 x625 <= 0
 c176: 4 x26 + 4 x86 + 4 x146 + 4 x206 + 4 x266 + 4 x326 + 4 x386 + 4 x446
       + 4 x506 + 4 x566 - 5 x626 <= 0
 c177: 4 x27 + 4 x87 + 4 x147 + 4 x207 + 4 x267 + 4 x327 + 4 x387 + 4 x447
       + 4 x507 + 4 x567 - 5 x627 <= 0
 c178: 4 x28 + 4 x88 + 4 x148 + 4 x208 + 4 x268 + 4 x328 + 4 x388 + 4 x448
       + 4 x508 + 4 x568 - 5 x628 <= 0
 c179: 4 x29 + 4 x89 + 4 x149 + 4 x209 + 4 x269 + 4 x329 + 4 x389 + 4 x449
       + 4 x509 + 4 x569 - 5 x629 <= 0
 c180: 4 x30 + 4 x90 + 4 x150 + 4 x210 + 4 x270 + 4 x330 + 4 x390 + 4 x450
       + 4 x510 + 4 x570 - 5 x630 <= 0
 c181: 4 x31 + 4 x91 + 4 x151 + 4 x211 + 4 x271 + 4 x331 + 4 x391 + 4 x451
       + 4 x511 + 4 x571 - 5 x631 <= 0
 c182: 4 x32 + 4 x92 + 4 x152 + 4 x212 + 4 x272 + 4 x332 + 4 x392 + 4 x452
       + 4 x512 + 4 x572 - 5 x632 <= 0
 c183: 4 x33 + 4 x93 + 4 x153 + 4 x213 + 4 x273 + 4 x333 + 4 x393 + 4 x453
       + 4 x513 + 4 x573 - 5 x633 <= 0
 c184: 4 x34 + 4 x94 + 4 x154 + 4 x214 + 4 x274 + 4 x334 + 4 x394 + 4 x454
       + 4 x514 + 4 x574 - 5 x634 <= 0
 c185: 4 x35 + 4 x95 + 4 x155 + 4 x215 + 4 x275 + 4 x335 + 4 x395 + 4 x455
       + 4 x515 + 4 x575 - 5 x635 <= 0
 c186: 4 x36 + 4 x96 + 4 x156 + 4 x216 + 4 x276 + 4 x336 + 4 x396 + 4 x456
       + 4 x516 + 4 x576 - 5 x636 <= 0
 c187: 4 x37 + 4 x97 + 4 x157 + 4 x217 + 4 x277 + 4 x337 + 4 x397 + 4 x457
       + 4 x517 + 4 x577 - 5 x637 <= 0
 c188: 4 x38 + 4 x98 + 4 x158 + 4 x218 + 4 x278 + 4 x338 + 4 x398 + 4 x458
       + 4 x518 + 4 x578 - 5 x638 <= 0
 c189: 4 x39 + 4 x99 + 4 x159 + 4 x219 + 4 x279 + 4 x339 + 4 x399 + 4 x459
       + 4 x519 + 4 x579 - 5 x639 <= 0
 c190: 4 x40 + 4 x100 + 4 x160 + 4 x220 + 4 x280 + 4 x340 + 4 x400 + 4 x460
       + 4 x520 + 4 x580 - 5 x640 <= 0
 c191: 4 x41 + 4 x101 + 4 x161 + 4 x221 + 4 x281 + 4 x341 + 4 x401 + 4 x461
       + 4 x521 + 4 x581 - 5 x641 <= 0
 c192: 4 x42 + 4 x102 + 4 x162 + 4 x222 + 4 x282 + 4 x342 + 4 x402 + 4 x462
       + 4 x522 + 4 x582 - 5 x642 <= 0
 c193: 4 x43 + 4 x103 + 4 x163 + 4 x223 + 4 x283 + 4 x343 + 4 x403 + 4 x463
       + 4 x523 + 4 x583 - 5 x643 <= 0
 c194: 4 x44 + 4 x104 + 4 x164 + 4 x224 + 4 x284 + 4 x344 + 4 x404 + 4 x464
       + 4 x524 + 4 x584 - 5 x644 <= 0
 c195: 4 x45 + 4 x105 + 4 x165 + 4 x225 + 4 x285 + 4 x345 + 4 x405 + 4 x465
       + 4 x525 + 4 x585 - 5 x645 <= 0
 c196: 4 x46 + 4 x106 + 4 x166 + 4 x226 + 4 x286 + 4 x346 + 4 x406 + 4 x466
       + 4 x526 + 4 x586 - 5 x646 <= 0
 c197: 4 x47 + 4 x107 + 4 x167 + 4 x227 + 4 x287 + 4 x347 + 4 x407 + 4 x467
       + 4 x527 + 4 x587 - 5 x647 <= 0
 c198: 4 x48 + 4 x108 + 4 x168 + 4 x228 + 4 x288 + 4 x348 + 4 x408 + 4 x468
       + 4 x528 + 4 x588 - 5 x648 <= 0
 c199: 4 x49 + 4 x109 + 4 x169 + 4 x229 + 4 x289 + 4 x349 + 4 x409 + 4 x469
       + 4 x529 + 4 x589 - 5 x649 <= 0
 c200: 4 x50 + 4 x110 + 4 x170 + 4 x230 + 4 x290 + 4 x350 + 4 x410 + 4 x470
       + 4 x530 + 4 x590 - 5 x650 <= 0
 c201: 4 x51 + 4 x111 + 4 x171 + 4 x231 + 4 x291 + 4 x351 + 4 x411 + 4 x471
       + 4 x531 + 4 x591 - 5 x651 <= 0
 c202: 4 x52 + 4 x112 + 4 x172 + 4 x232 + 4 x292 + 4 x352 + 4 x412 + 4 x472
       + 4 x532 + 4 x592 - 5 x652 <= 0
 c203: 4 x53 + 4 x113 + 4 x173 + 4 x233 + 4 x293 + 4 x353 + 4 x413 + 4 x473
       + 4 x533 + 4 x593 - 5 x653 <= 0
 c204: 4 x54 + 4 x114 + 4 x174 + 4 x234 + 4 x294 + 4 x354 + 4 x414 + 4 x474
       + 4 x534 + 4 x594 - 5 x654 <= 0
 c205: 4 x55 + 4 x115 + 4 x175 + 4 x235 + 4 x295 + 4 x355 + 4 x415 + 4 x475
       + 4 x535 + 4 x595 - 5 x655 <= 0
 c206: 4 x56 + 4 x116 + 4 x176 + 4 x236 + 4 x296 + 4 x356 + 4 x416 + 4 x476
       + 4 x536 + 4 x596 - 5 x656 <= 0
 c207: 4 x57 + 4 x117 + 4 x177 + 4 x237 + 4 x297 + 4 x357 + 4 x417 + 4 x477
       + 4 x537 + 4 x597 - 5 x657 <= 0
 c208: 4 x58 + 4 x118 + 4 x178 + 4 x238 + 4 x298 + 4 x358 + 4 x418 + 4 x478
       + 4 x538 + 4 x598 - 5 x658 <= 0
 c209: 4 x59 + 4 x119 + 4 x179 + 4 x239 + 4 x299 + 4 x359 + 4 x419 + 4 x479
       + 4 x539 + 4 x599 - 5 x659 <= 0
 c210: 4 x60 + 4 x120 + 4 x180 + 4 x240 + 4 x300 + 4 x360 + 4 x420 + 4 x480
       + 4 x540 + 4 x600 - 5 x660 <= 0
Bounds
 0 <= x1 <= 1
 0 <= x2 <= 1
 0 <= x3 <= 1
 0 <= x4 <= 1
 0 <= x5 <= 1
 0 <= x6 <= 1
 0 <= x7 <= 1
 0 <= x8 <= 1
 0 <= x9 <= 1
 0 <= x10 <= 1
 0 <= x11 <= 1
 0 <= x12 <= 1
 0 <= x13 <= 1
 0 <= x14 <= 1
 0 <= x15 <= 1
 0 <= x16 <= 1
 0 <= x17 <= 1
 0 <= x18 <= 1
 0 <= x19 <= 1
 0 <= x20 <= 1
 0 <= x21 <= 1
 0 <= x22 <= 1
 0 <= x23 <= 1
 0 <= x24 <= 1
 0 <= x25 <= 1
 0 <= x26 <= 1
 0 <= x27 <= 1
 0 <= x28 <= 1
 0 <= x29 <= 1
 0 <= x30 <= 1
 0 <= x31 <= 1
 0 <= x32 <= 1
 0 <= x33 <= 1
 0 <= x34 <= 1
 0 <= x35 <= 1
 0 <= x36 <= 1
 0 <= x37 <= 1
 0 <= x38 <= 1
 0 <= x39 <= 1
 0 <= x40 <= 1
 0 <= x41 <= 1
 0 <= x42 <= 1
 0 <= x43 <= 1
 0 <= x44 <= 1
 0 <= x45 <= 1
 0 <= x46 <= 1
 0 <= x47 <= 1
 0 <= x48 <= 1
 0 <= x49 <= 1
 0 <= x50 <= 1
 0 <= x51 <= 1
 0 <= x52 <= 1
 0 <= x53 <= 1
 0 <= x54 <= 1
 0 <= x55 <= 1
 0 <= x56 <= 1
 0 <= x57 <= 1
 0 <= x58 <= 1
 0 <= x59 <= 1
 0 <= x60 <= 1
 0 <= x61 <= 1
 0 <= x62 <= 1
 0 <= x63 <= 1
 0 <= x64 <= 1
 0 <= x65 <= 1
 0 <= x66 <= 1
 0 <= x67 <= 1
 0 <= x68 <= 1
 0 <= x69 <= 1
 0 <= x70 <= 1
 0 <= x71 <= 1
 0 <= x72 <= 1
 0 <= x73 <= 1
 0 <= x74 <= 1
 0 <= x75 <= 1
 0 <= x76 <= 1
 0 <= x77 <= 1
 0 <= x78 <= 1
 0 <= x79 <= 1
 0 <= x80 <= 1
 0 <= x81 <= 1
 0 <= x82 <= 1
 0 <= x83 <= 1
 0 <= x84 <= 1
 0 <= x85 <= 1
 0 <= x86 <= 1
 0 <= x87 <= 1
 0 <= x88 <= 1
 0 <= x89 <= 1
 0 <= x90 <= 1
 0 <= x91 <= 1
 0 <= x92 <= 1
 0 <= x93 <= 1
 0 <= x94 <= 1
 0 <= x95 <= 1
 0 <= x96 <= 1
 0 <= x97 <= 1
 0 <= x98 <= 1
 0 <= x99 <= 1
 0 <= x100 <= 1
 0 <= x101 <= 1
 0 <= x102 <= 1
 0 <= x103 <= 1
 0 <= x104 <= 1
 0 <= x105 <= 1
 0 <= x106 <= 1
 0 <= x107 <= 1
 0 <= x108 <= 1
 0 <= x109 <= 1
 0 <= x110 <= 1
 0 <= x111 <= 1
 0 <= x112 <= 1
 0 <= x113 <= 1
 0 <= x114 <= 1
 0 <= x115 <= 1
 0 <= x116 <= 1
 0 <= x117 <= 1
 0 <= x118 <= 1
 0 <= x119 <= 1
 0 <= x120 <= 1
 0 <= x121 <= 1
 0 <= x122 <= 1
 0 <= x123 <= 1
 0 <= x124 <= 1
 0 <= x125 <= 1
 0 <= x126 <= 1
 0 <= x127 <= 1
 0 <= x128 <= 1
 0 <= x129 <= 1
 0 <= x130 <= 1
 0 <= x131 <= 1
 0 <= x132 <= 1
 0 <= x133 <= 1
 0 <= x134 <= 1
 0 <= x135 <= 1
 0 <= x136 <= 1
 0 <= x137 <= 1
 0 <= x138 <= 1
 0 <= x139 <= 1
 0 <= x140 <= 1
 0 <= x141 <= 1
 0 <= x142 <= 1
 0 <= x143 <= 1
 0 <= x144 <= 1
 0 <= x145 <= 1
 0 <= x146 <= 1
 0 <= x147 <= 1
 0 <= x148 <= 1
 0 <= x149 <= 1
 0 <= x150 <= 1
 0 <= x151 <= 1
 0 <= x152 <= 1
 0 <= x153 <= 1
 0 <= x154 <= 1
 0 <= x155 <= 1
 0 <= x156 <= 1
 0 <= x157 <= 1
 0 <= x158 <= 1
 0 <= x159 <= 1
 0 <= x160 <= 1
 0 <= x161 <= 1
 0 <= x162 <= 1
 0 <= x163 <= 1
 0 <= x164 <= 1
 0 <= x165 <= 1
 0 <= x166 <= 1
 0 <= x167 <= 1
 0 <= x168 <= 1
 0 <= x169 <= 1
 0 <= x170 <= 1
 0 <= x171 <= 1
 0 <= x172 <= 1
 0 <= x173 <= 1
 0 <= x174 <= 1
 0 <= x175 <= 1
 0 <= x176 <= 1
 0 <= x177 <= 1
 0 <= x178 <= 1
 0 <= x179 <= 1
 0 <= x180 <= 1
 0 <= x181 <= 1
 0 <= x182 <= 1
 0 <= x183 <= 1
 0 <= x184 <= 1
 0 <= x185 <= 1
 0 <= x186 <= 1
 0 <= x187 <= 1
 0 <= x188 <= 1
 0 <= x189 <= 1
 0 <= x190 <= 1
 0 <= x191 <= 1
 0 <= x192 <= 1
 0 <= x193 <= 1
 0 <= x194 <= 1
 0 <= x195 <= 1
 0 <= x196 <= 1
 0 <= x197 <= 1
 0 <= x198 <= 1
 0 <= x199 <= 1
 0 <= x200 <= 1
 0 <= x201 <= 1
 0 <= x202 <= 1
 0 <= x203 <= 1
 0 <= x204 <= 1
 0 <= x205 <= 1
 0 <= x206 <= 1
 0 <= x207 <= 1
 0 <= x208 <= 1
 0 <= x209 <= 1
 0 <= x210 <= 1
 0 <= x211 <= 1
 0 <= x212 <= 1
 0 <= x213 <= 1
 0 <= x214 <= 1
 0 <= x215 <= 1
 0 <= x216 <= 1
 0 <= x217 <= 1
 0 <= x218 <= 1
 0 <= x219 <= 1
 0 <= x220 <= 1
 0 <= x221 <= 1
 0 <= x222 <= 1
 0 <= x223 <= 1
 0 <= x224 <= 1
 0 <= x225 <= 1
 0 <= x226 <= 1
 0 <= x227 <= 1
 0 <= x228 <= 1
 0 <= x229 <= 1
 0 <= x230 <= 1
 0 <= x231 <= 1
 0 <= x232 <= 1
 0 <= x233 <= 1
 0 <= x234 <= 1
 0 <= x235 <= 1
 0 <= x236 <= 1
 0 <= x237 <= 1
 0 <= x238 <= 1
 0 <= x239 <= 1
 0 <= x240 <= 1
 0 <= x241 <= 1
 0 <= x242 <= 1
 0 <= x243 <= 1
 0 <= x244 <= 1
 0 <= x245 <= 1
 0 <= x246 <= 1
 0 <= x247 <= 1
 0 <= x248 <= 1
 0 <= x249 <= 1
 0 <= x250 <= 1
 0 <= x251 <= 1
 0 <= x252 <= 1
 0 <= x253 <= 1
 0 <= x254 <= 1
 0 <= x255 <= 1
 0 <= x256 <= 1
 0 <= x257 <= 1
 0 <= x258 <= 1
 0 <= x259 <= 1
 0 <= x260 <= 1
 0 <= x261 <= 1
 0 <= x262 <= 1
 0 <= x263 <= 1
 0 <= x264 <= 1
 0 <= x265 <= 1
 0 <= x266 <= 1
 0 <= x267 <= 1
 0 <= x268 <= 1
 0 <= x269 <= 1
 0 <= x270 <= 1
 0 <= x271 <= 1
 0 <= x272 <= 1
 0 <= x273 <= 1
 0 <= x274 <= 1
 0 <= x275 <= 1
 0 <= x276 <= 1
 0 <= x277 <= 1
 0 <= x278 <= 1
 0 <= x279 <= 1
 0 <= x280 <= 1
 0 <= x281 <= 1
 0 <= x282 <= 1
 0 <= x283 <= 1
 0 <= x284 <= 1
 0 <= x285 <= 1
 0 <= x286 <= 1
 0 <= x287 <= 1
 0 <= x288 <= 1
 0 <= x289 <= 1
 0 <= x290 <= 1
 0 <= x291 <= 1
 0 <= x292 <= 1
 0 <= x293 <= 1
 0 <= x294 <= 1
 0 <= x295 <= 1
 0 <= x296 <= 1
 0 <= x297 <= 1
 0 <= x298 <= 1
 0 <= x299 <= 1
 0 <= x300 <= 1
 0 <= x301 <= 1
 0 <= x302 <= 1
 0 <= x303 <= 1
 0 <= x304 <= 1
 0 <= x305 <= 1
 0 <= x306 <= 1
 0 <= x307 <= 1
 0 <= x308 <= 1
 0 <= x309 <= 1
 0 <= x310 <= 1
 0 <= x311 <= 1
 0 <= x312 <= 1
 0 <= x313 <= 1
 0 <= x314 <= 1
 0 <= x315 <= 1
 0 <= x316 <= 1
 0 <= x317 <= 1
 0 <= x318 <= 1
 0 <= x319 <= 1
 0 <= x320 <= 1
 0 <= x321 <= 1
 0 <= x322 <= 1
 0 <= x323 <= 1
 0 <= x324 <= 1
 0 <= x325 <= 1
 0 <= x326 <= 1
 0 <= x327 <= 1
 0 <= x328 <= 1
 0 <= x329 <= 1
 0 <= x330 <= 1
 0 <= x331 <= 1
 0 <= x332 <= 1
 0 <= x333 <= 1
 0 <= x334 <= 1
 0 <= x335 <= 1
 0 <= x336 <= 1
 0 <= x337 <= 1
 0 <= x338 <= 1
 0 <= x339 <= 1
 0 <= x340 <= 1
 0 <= x341 <= 1
 0 <= x342 <= 1
 0 <= x343 <= 1
 0 <= x344 <= 1
 0 <= x345 <= 1
 0 <= x346 <= 1
 0 <= x347 <= 1
 0 <= x348 <= 1
 0 <= x349 <= 1
 0 <= x350 <= 1
 0 <= x351 <= 1
 0 <= x352 <= 1
 0 <= x353 <= 1
 0 <= x354 <= 1
 0 <= x355 <= 1
 0 <= x356 <= 1
 0 <= x357 <= 1
 0 <= x358 <= 1
 0 <= x359 <= 1
 0 <= x360 <= 1
 0 <= x361 <= 1
 0 <= x362 <= 1
 0 <= x363 <= 1
 0 <= x364 <= 1
 0 <= x365 <= 1
 0 <= x366 <= 1
 0 <= x367 <= 1
 0 <= x368 <= 1
 0 <= x369 <= 1
 0 <= x370 <= 1
 0 <= x371 <= 1
 0 <= x372 <= 1
 0 <= x373 <= 1
 0 <= x374 <= 1
 0 <= x375 <= 1
 0 <= x376 <= 1
 0 <= x377 <= 1
 0 <= x378 <= 1
 0 <= x379 <= 1
 0 <= x380 <= 1
 0 <= x381 <= 1
 0 <= x382 <= 1
 0 <= x383 <= 1
 0 <= x384 <= 1
 0 <= x385 <= 1
 0 <= x386 <= 1
 0 <= x387 <= 1
 0 <= x388 <= 1
 0 <= x389 <= 1
 0 <= x390 <= 1
 0 <= x391 <= 1
 0 <= x392 <= 1
 0 <= x393 <= 1
 0 <= x394 <= 1
 0 <= x395 <= 1
 0 <= x396 <= 1
 0 <= x397 <= 1
 0 <= x398 <= 1
 0 <= x399 <= 1
 0 <= x400 <= 1
 0 <= x401 <= 1
 0 <= x402 <= 1
 0 <= x403 <= 1
 0 <= x404 <= 1
 0 <= x405 <= 1
 0 <= x406 <= 1
 0 <= x407 <= 1
 0 <= x408 <= 1
 0 <= x409 <= 1
 0 <= x410 <= 1
 0 <= x411 <= 1
 0 <= x412 <= 1
 0 <= x413 <= 1
 0 <= x414 <= 1
 0 <= x415 <= 1
 0 <= x416 <= 1
 0 <= x417 <= 1
 0 <= x418 <= 1
 0 <= x419 <= 1
 0 <= x420 <= 1
 0 <= x421 <= 1
 0 <= x422 <= 1
 0 <= x423 <= 1
 0 <= x424 <= 1
 0 <= x425 <= 1
 0 <= x426 <= 1
 0 <= x427 <= 1
 0 <= x428 <= 1
 0 <= x429 <= 1
 0 <= x430 <= 1
 0 <= x431 <= 1
 0 <= x432 <= 1
 0 <= x433 <= 1
 0 <= x434 <= 1
 0 <= x435 <= 1
 0 <= x436 <= 1
 0 <= x437 <= 1
 0 <= x438 <= 1
 0 <= x439 <= 1
 0 <= x440 <= 1
 0 <= x441 <= 1
 0 <= x442 <= 1
 0 <= x443 <= 1
 0 <= x444 <= 1
 0 <= x445 <= 1
 0 <= x446 <= 1
 0 <= x447 <= 1
 0 <= x448 <= 1
 0 <= x449 <= 1
 0 <= x450 <= 1
 0 <= x451 <= 1
 0 <= x452 <= 1
 0 <= x453 <= 1
 0 <= x454 <= 1
 0 <= x455 <= 1
 0 <= x456 <= 1
 0 <= x457 <= 1
 0 <= x458 <= 1
 0 <= x459 <= 1
 0 <= x460 <= 1
 0 <= x461 <= 1
 0 <= x462 <= 1
 0 <= x463 <= 1
 0 <= x464 <= 1
 0 <= x465 <= 1
 0 <= x466 <= 1
 0 <= x467 <= 1
 0 <= x468 <= 1
 0 <= x469 <= 1
 0 <= x470 <= 1
 0 <= x471 <= 1
 0 <= x472 <= 1
 0 <= x473 <= 1
 0 <= x474 <= 1
 0 <= x475 <= 1
 0 <= x476 <= 1
 0 <= x477 <= 1
 0 <= x478 <= 1
 0 <= x479 <= 1
 0 <= x480 <= 1
 0 <= x481 <= 1
 0 <= x482 <= 1
 0 <= x483 <= 1
 0 <= x484 <= 1
 0 <= x485 <= 1
 0 <= x486 <= 1
 0 <= x487 <= 1
 0 <= x488 <= 1
 0 <= x489 <= 1
 0 <= x490 <= 1
 0 <= x491 <= 1
 0 <= x492 <= 1
 0 <= x493 <= 1
 0 <= x494 <= 1
 0 <= x495 <= 1
 0 <= x496 <= 1
 0 <= x497 <= 1
 0 <= x498 <= 1
 0 <= x499 <= 1
 0 <= x500 <= 1
 0 <= x501 <= 1
 0 <= x502 <= 1
 0 <= x503 <= 1
 0 <= x504 <= 1
 0 <= x505 <= 1
 0 <= x506 <= 1
 0 <= x507 <= 1
 0 <= x508 <= 1
 0 <= x509 <= 1
 0 <= x510 <= 1
 0 <= x511 <= 1
 0 <= x512 <= 1
 0 <= x513 <= 1
 0 <= x514 <= 1
 0 <= x515 <= 1
 0 <= x516 <= 1
 0 <= x517 <= 1
 0 <= x518 <= 1
 0 <= x519 <= 1
 0 <= x520 <= 1
 0 <= x521 <= 1
 0 <= x522 <= 1
 0 <= x523 <= 1
 0 <= x524 <= 1
 0 <= x525 <= 1
 0 <= x526 <= 1
 0 <= x527 <= 1
 0 <= x528 <= 1
 0 <= x529 <= 1
 0 <= x530 <= 1
 0 <= x531 <= 1
 0 <= x532 <= 1
 0 <= x533 <= 1
 0 <= x534 <= 1
 0 <= x535 <= 1
 0 <= x536 <= 1
 0 <= x537 <= 1
 0 <= x538 <= 1
 0 <= x539 <= 1
 0 <= x540 <= 1
 0 <= x541 <= 1
 0 <= x542 <= 1
 0 <= x543 <= 1
 0 <= x544 <= 1
 0 <= x545 <= 1
 0 <= x546 <= 1
 0 <= x547 <= 1
 0 <= x548 <= 1
 0 <= x549 <= 1
 0 <= x550 <= 1
 0 <= x551 <= 1
 0 <= x552 <= 1
 0 <= x553 <= 1
 0 <= x554 <= 1
 0 <= x555 <= 1
 0 <= x556 <= 1
 0 <= x557 <= 1
 0 <= x558 <= 1
 0 <= x559 <= 1
 0 <= x560 <= 1
 0 <= x561 <= 1
 0 <= x562 <= 1
 0 <= x563 <= 1
 0 <= x564 <= 1
 0 <= x565 <= 1
 0 <= x566 <= 1
 0 <= x567 <= 1
 0 <= x568 <= 1
 0 <= x569 <= 1
 0 <= x570 <= 1
 0 <= x571 <= 1
 0 <= x572 <= 1
 0 <= x573 <= 1
 0 <= x574 <= 1
 0 <= x575 <= 1
 0 <= x576 <= 1
 0 <= x577 <= 1
 0 <= x578 <= 1
 0 <= x579 <= 1
 0 <= x580 <= 1
 0 <= x581 <= 1
 0 <= x582 <= 1
 0 <= x583 <= 1
 0 <= x584 <= 1
 0 <= x585 <= 1
 0 <= x586 <= 1
 0 <= x587 <= 1
 0 <= x588 <= 1
 0 <= x589 <= 1
 0 <= x590 <= 1
 0 <= x591 <= 1
 0 <= x592 <= 1
 0 <= x593 <= 1
 0 <= x594 <= 1
 0 <= x595 <= 1
 0 <= x596 <= 1
 0 <= x597 <= 1
 0 <= x598 <= 1
 0 <= x599 <= 1
 0 <= x600 <= 1
 0 <= x601 <= 1
 0 <= x602 <= 1
 0 <= x603 <= 1
 0 <= x604 <= 1
 0 <= x605 <= 1
 0 <= x606 <= 1
 0 <= x607 <= 1
 0 <= x608 <= 1
 0 <= x609 <= 1
 0 <= x610 <= 1
 0 <= x611 <= 1
 0 <= x612 <= 1
 0 <= x613 <= 1
 0 <= x614 <= 1
 0 <= x615 <= 1
 0 <= x616 <= 1
 0 <= x617 <= 1
 0 <= x618 <= 1
 0 <= x619 <= 1
 0 <= x620 <= 1
 0 <= x621 <= 1
 0 <= x622 <= 1
 0 <= x623 <= 1
 0 <= x624 <= 1
 0 <= x625 <= 1
 0 <= x626 <= 1
 0 <= x627 <= 1
 0 <= x628 <= 1
 0 <= x629 <= 1
 0 <= x630 <= 1
 0 <= x631 <= 1
 0 <= x632 <= 1
 0 <= x633 <= 1
 0 <= x634 <= 1
 0 <= x635 <= 1
 0 <= x636 <= 1
 0 <= x637 <= 1
 0 <= x638 <= 1
 0 <= x639 <= 1
 0 <= x640 <= 1
 0 <= x641 <= 1
 0 <= x642 <= 1
 0 <= x643 <= 1
 0 <= x644 <= 1
 0 <= x645 <= 1
 0 <= x646 <= 1
 0 <= x647 <= 1
 0 <= x648 <= 1
 0 <= x649 <= 1
 0 <= x650 <= 1
 0 <= x651 <= 1
 0 <= x652 <= 1
 0 <= x653 <= 1
 0 <= x654 <= 1
 0 <= x655 <= 1
 0 <= x656 <= 1
 0 <= x657 <= 1
 0 <= x658 <= 1
 0 <= x659 <= 1
 0 <= x660 <= 1
Binaries
 x601  x602  x603  x604  x605  x606  x607  x608  x609  x610  x611  x612  x613 
 x614  x615  x616  x617  x618  x619  x620  x621  x622  x623  x624  x625  x626 
 x627  x628  x629  x630  x631  x632  x633  x634  x635  x636  x637  x638  x639 
 x640  x641  x642  x643  x644  x645  x646  x647  x648  x649  x650  x651  x652 
 x653  x654  x655  x656  x657  x658  x659  x660 
End
